c Result of efficient AIG-to-CNF conversion using package CNF
p cnf 325 938
1 -319 -320 0
-1 319 0
-1 320 0
2 -323 1 0
-2 323 0
-2 -1 0
3 315 320 0
-3 -315 0
-3 -320 0
4 317 -320 0
-4 -317 0
-4 320 0
5 3 4 0
-5 -3 0
-5 -4 0
6 -316 5 0
-6 316 0
-6 -5 0
7 319 320 0
-7 -319 0
-7 -320 0
8 -317 -320 0
-8 317 0
-8 320 0
9 -315 320 0
-9 315 0
-9 -320 0
10 8 9 0
-10 -8 0
-10 -9 0
11 316 10 0
-11 -316 0
-11 -10 0
12 7 11 0
-12 -7 0
-12 -11 0
13 6 -12 0
-13 -6 0
-13 12 0
14 322 323 0
-14 -322 0
-14 -323 0
15 321 -14 0
-15 -321 0
-15 14 0
16 13 -15 0
-16 -13 0
-16 15 0
17 2 16 0
-17 -2 0
-17 -16 0
18 -314 315 0
-18 314 0
-18 -315 0
19 314 -315 0
-19 -314 0
-19 315 0
20 18 19 0
-20 -18 0
-20 -19 0
21 -318 -20 0
-21 318 0
-21 20 0
22 -314 -317 0
-22 314 0
-22 317 0
23 -313 -22 0
-23 313 0
-23 22 0
24 313 22 0
-24 -313 0
-24 -22 0
25 23 24 0
-25 -23 0
-25 -24 0
26 318 25 0
-26 -318 0
-26 -25 0
27 21 26 0
-27 -21 0
-27 -26 0
28 -16 -27 0
-28 16 0
-28 27 0
29 320 28 0
-29 -320 0
-29 -28 0
30 319 -29 0
-30 -319 0
-30 29 0
31 17 30 0
-31 -17 0
-31 -30 0
32 -317 318 0
-32 317 0
-32 -318 0
33 317 -318 0
-33 -317 0
-33 318 0
34 32 33 0
-34 -32 0
-34 -33 0
35 323 34 0
-35 -323 0
-35 -34 0
36 322 -35 0
-36 -322 0
-36 35 0
37 -321 -36 0
-37 321 0
-37 36 0
38 319 323 0
-38 -319 0
-38 -323 0
39 -318 -38 0
-39 318 0
-39 38 0
40 318 323 0
-40 -318 0
-40 -323 0
41 -321 -323 0
-41 321 0
-41 323 0
42 40 41 0
-42 -40 0
-42 -41 0
43 -319 42 0
-43 319 0
-43 -42 0
44 39 43 0
-44 -39 0
-44 -43 0
45 -322 44 0
-45 322 0
-45 -44 0
46 37 45 0
-46 -37 0
-46 -45 0
47 31 -46 0
-47 -31 0
-47 46 0
48 -315 -317 0
-48 315 0
-48 317 0
49 314 48 0
-49 -314 0
-49 -48 0
50 -314 -315 0
-50 314 0
-50 315 0
51 -313 -50 0
-51 313 0
-51 50 0
52 313 315 0
-52 -313 0
-52 -315 0
53 51 52 0
-53 -51 0
-53 -52 0
54 -317 53 0
-54 317 0
-54 -53 0
55 49 54 0
-55 -49 0
-55 -54 0
56 318 55 0
-56 -318 0
-56 -55 0
57 -315 -316 0
-57 315 0
-57 316 0
58 -314 -57 0
-58 314 0
-58 57 0
59 316 50 0
-59 -316 0
-59 -50 0
60 58 59 0
-60 -58 0
-60 -59 0
61 -318 60 0
-61 318 0
-61 -60 0
62 56 61 0
-62 -56 0
-62 -61 0
63 -7 -62 0
-63 7 0
-63 62 0
64 -316 -32 0
-64 316 0
-64 32 0
65 -316 -317 0
-65 316 0
-65 317 0
66 -318 65 0
-66 318 0
-66 -65 0
67 64 66 0
-67 -64 0
-67 -66 0
68 -320 67 0
-68 320 0
-68 -67 0
69 -316 317 0
-69 316 0
-69 -317 0
70 -315 -69 0
-70 315 0
-70 69 0
71 -317 57 0
-71 317 0
-71 -57 0
72 70 71 0
-72 -70 0
-72 -71 0
73 320 72 0
-73 -320 0
-73 -72 0
74 -319 -73 0
-74 319 0
-74 73 0
75 68 74 0
-75 -68 0
-75 -74 0
76 63 -75 0
-76 -63 0
-76 75 0
77 -15 76 0
-77 15 0
-77 -76 0
78 -318 319 0
-78 318 0
-78 -319 0
79 -317 -78 0
-79 317 0
-79 78 0
80 -317 -318 0
-80 317 0
-80 318 0
81 -319 80 0
-81 319 0
-81 -80 0
82 79 81 0
-82 -79 0
-82 -81 0
83 322 82 0
-83 -322 0
-83 -82 0
84 -321 -83 0
-84 321 0
-84 83 0
85 -318 -319 0
-85 318 0
-85 319 0
86 320 -85 0
-86 -320 0
-86 85 0
87 -320 85 0
-87 320 0
-87 -85 0
88 86 87 0
-88 -86 0
-88 -87 0
89 -322 88 0
-89 322 0
-89 -88 0
90 84 89 0
-90 -84 0
-90 -89 0
91 323 -90 0
-91 -323 0
-91 90 0
92 -321 322 0
-92 321 0
-92 -322 0
93 -320 -92 0
-93 320 0
-93 92 0
94 -319 -93 0
-94 319 0
-94 93 0
95 321 1 0
-95 -321 0
-95 -1 0
96 94 95 0
-96 -94 0
-96 -95 0
97 -323 96 0
-97 323 0
-97 -96 0
98 91 97 0
-98 -91 0
-98 -97 0
99 77 98 0
-99 -77 0
-99 -98 0
100 -317 -85 0
-100 317 0
-100 85 0
101 -321 100 0
-101 321 0
-101 -100 0
102 320 -101 0
-102 -320 0
-102 101 0
103 -316 -80 0
-103 316 0
-103 80 0
104 321 103 0
-104 -321 0
-104 -103 0
105 319 -104 0
-105 -319 0
-105 104 0
106 316 321 0
-106 -316 0
-106 -321 0
107 -319 106 0
-107 319 0
-107 -106 0
108 -318 -107 0
-108 318 0
-108 107 0
109 -317 -108 0
-109 317 0
-109 108 0
110 105 109 0
-110 -105 0
-110 -109 0
111 -320 110 0
-111 320 0
-111 -110 0
112 102 111 0
-112 -102 0
-112 -111 0
113 323 -112 0
-113 -323 0
-113 112 0
114 322 -113 0
-114 -322 0
-114 113 0
115 -313 -314 0
-115 313 0
-115 314 0
116 -317 115 0
-116 317 0
-116 -115 0
117 319 116 0
-117 -319 0
-117 -116 0
118 318 -117 0
-118 -318 0
-118 117 0
119 -315 -118 0
-119 315 0
-119 118 0
120 80 119 0
-120 -80 0
-120 -119 0
121 316 120 0
-121 -316 0
-121 -120 0
122 -317 319 0
-122 317 0
-122 -319 0
123 314 -122 0
-123 -314 0
-123 122 0
124 317 -319 0
-124 -317 0
-124 319 0
125 123 124 0
-125 -123 0
-125 -124 0
126 -318 125 0
-126 318 0
-126 -125 0
127 318 319 0
-127 -318 0
-127 -319 0
128 317 -127 0
-128 -317 0
-128 127 0
129 317 319 0
-129 -317 0
-129 -319 0
130 -314 -129 0
-130 314 0
-130 129 0
131 318 -319 0
-131 -318 0
-131 319 0
132 -317 -131 0
-132 317 0
-132 131 0
133 130 132 0
-133 -130 0
-133 -132 0
134 -316 133 0
-134 316 0
-134 -133 0
135 128 134 0
-135 -128 0
-135 -134 0
136 319 115 0
-136 -319 0
-136 -115 0
137 318 -136 0
-137 -318 0
-137 136 0
138 -317 -137 0
-138 317 0
-138 137 0
139 -315 138 0
-139 315 0
-139 -138 0
140 135 -139 0
-140 -135 0
-140 139 0
141 126 140 0
-141 -126 0
-141 -140 0
142 -316 -122 0
-142 316 0
-142 122 0
143 85 142 0
-143 -85 0
-143 -142 0
144 139 143 0
-144 -139 0
-144 -143 0
145 -141 144 0
-145 141 0
-145 -144 0
146 121 -145 0
-146 -121 0
-146 145 0
147 321 -146 0
-147 -321 0
-147 146 0
148 320 -147 0
-148 -320 0
-148 147 0
149 -114 148 0
-149 114 0
-149 -148 0
150 -320 -321 0
-150 320 0
-150 321 0
151 -319 -150 0
-151 319 0
-151 150 0
152 322 151 0
-152 -322 0
-152 -151 0
153 -323 152 0
-153 323 0
-153 -152 0
154 -320 321 0
-154 320 0
-154 -321 0
155 -319 -154 0
-155 319 0
-155 154 0
156 -318 -155 0
-156 318 0
-156 155 0
157 -318 -1 0
-157 318 0
-157 1 0
158 -321 157 0
-158 321 0
-158 -157 0
159 156 158 0
-159 -156 0
-159 -158 0
160 -322 159 0
-160 322 0
-160 -159 0
161 153 160 0
-161 -153 0
-161 -160 0
162 149 -161 0
-162 -149 0
-162 161 0
163 315 -80 0
-163 -315 0
-163 80 0
164 -151 -163 0
-164 151 0
-164 163 0
165 320 321 0
-165 -320 0
-165 -321 0
166 319 -165 0
-166 -319 0
-166 165 0
167 317 318 0
-167 -317 0
-167 -318 0
168 -166 -167 0
-168 166 0
-168 167 0
169 164 168 0
-169 -164 0
-169 -168 0
170 323 169 0
-170 -323 0
-170 -169 0
171 322 -170 0
-171 -322 0
-171 170 0
172 316 -171 0
-172 -316 0
-172 171 0
173 321 322 0
-173 -321 0
-173 -322 0
174 319 -173 0
-174 -319 0
-174 173 0
175 -321 -322 0
-175 321 0
-175 322 0
176 -319 -175 0
-176 319 0
-176 175 0
177 -318 -176 0
-177 318 0
-177 176 0
178 173 177 0
-178 -173 0
-178 -177 0
179 -320 178 0
-179 320 0
-179 -178 0
180 174 179 0
-180 -174 0
-180 -179 0
181 -315 -150 0
-181 315 0
-181 150 0
182 318 -165 0
-182 -318 0
-182 165 0
183 181 182 0
-183 -181 0
-183 -182 0
184 -315 321 0
-184 315 0
-184 -321 0
185 320 184 0
-185 -320 0
-185 -184 0
186 -316 185 0
-186 316 0
-186 -185 0
187 -183 186 0
-187 183 0
-187 -186 0
188 -313 -58 0
-188 313 0
-188 58 0
189 319 188 0
-189 -319 0
-189 -188 0
190 318 189 0
-190 -318 0
-190 -189 0
191 314 -318 0
-191 -314 0
-191 318 0
192 320 191 0
-192 -320 0
-192 -191 0
193 319 192 0
-193 -319 0
-193 -192 0
194 190 193 0
-194 -190 0
-194 -193 0
195 187 -194 0
-195 -187 0
-195 194 0
196 -317 -195 0
-196 317 0
-196 195 0
197 322 196 0
-197 -322 0
-197 -196 0
198 -180 197 0
-198 180 0
-198 -197 0
199 180 196 0
-199 -180 0
-199 -196 0
200 322 -199 0
-200 -322 0
-200 199 0
201 198 200 0
-201 -198 0
-201 -200 0
202 323 201 0
-202 -323 0
-202 -201 0
203 318 115 0
-203 -318 0
-203 -115 0
204 321 203 0
-204 -321 0
-204 -203 0
205 320 -204 0
-205 -320 0
-205 204 0
206 150 165 0
-206 -150 0
-206 -165 0
207 -319 206 0
-207 319 0
-207 -206 0
208 205 207 0
-208 -205 0
-208 -207 0
209 316 -321 0
-209 -316 0
-209 321 0
210 127 209 0
-210 -127 0
-210 -209 0
211 315 210 0
-211 -315 0
-211 -210 0
212 -315 -65 0
-212 315 0
-212 65 0
213 321 -85 0
-213 -321 0
-213 85 0
214 -212 -213 0
-214 212 0
-214 213 0
215 316 319 0
-215 -316 0
-215 -319 0
216 321 215 0
-216 -321 0
-216 -215 0
217 318 216 0
-217 -318 0
-217 -216 0
218 214 217 0
-218 -214 0
-218 -217 0
219 321 127 0
-219 -321 0
-219 -127 0
220 317 219 0
-220 -317 0
-220 -219 0
221 -218 220 0
-221 218 0
-221 -220 0
222 211 -221 0
-222 -211 0
-222 221 0
223 208 -222 0
-223 -208 0
-223 222 0
224 323 223 0
-224 -323 0
-224 -223 0
225 322 -224 0
-225 -322 0
-225 224 0
226 -57 -80 0
-226 57 0
-226 80 0
227 -319 -226 0
-227 319 0
-227 226 0
228 -15 227 0
-228 15 0
-228 -227 0
229 320 -228 0
-229 -320 0
-229 228 0
230 -313 -47 0
-230 313 0
-230 47 0
231 313 47 0
-231 -313 0
-231 -47 0
232 230 231 0
-232 -230 0
-232 -231 0
233 99 230 0
-233 -99 0
-233 -230 0
234 -99 -230 0
-234 99 0
-234 230 0
235 233 234 0
-235 -233 0
-235 -234 0
236 -313 -235 0
-236 313 0
-236 235 0
237 313 235 0
-237 -313 0
-237 -235 0
238 236 237 0
-238 -236 0
-238 -237 0
239 -313 -99 0
-239 313 0
-239 99 0
240 313 99 0
-240 -313 0
-240 -99 0
241 -230 240 0
-241 230 0
-241 -240 0
242 230 -239 0
-242 -230 0
-242 239 0
243 241 242 0
-243 -241 0
-243 -242 0
244 162 -243 0
-244 -162 0
-244 243 0
245 -162 243 0
-245 162 0
-245 -243 0
246 244 245 0
-246 -244 0
-246 -245 0
247 162 -246 0
-247 -162 0
-247 246 0
248 -162 246 0
-248 162 0
-248 -246 0
249 247 248 0
-249 -247 0
-249 -248 0
250 172 -243 0
-250 -172 0
-250 243 0
251 -172 243 0
-251 172 0
-251 -243 0
252 250 251 0
-252 -250 0
-252 -251 0
253 172 -252 0
-253 -172 0
-253 252 0
254 -172 252 0
-254 172 0
-254 -252 0
255 253 254 0
-255 -253 0
-255 -254 0
256 202 -243 0
-256 -202 0
-256 243 0
257 -202 243 0
-257 202 0
-257 -243 0
258 256 257 0
-258 -256 0
-258 -257 0
259 202 -258 0
-259 -202 0
-259 258 0
260 -202 258 0
-260 202 0
-260 -258 0
261 259 260 0
-261 -259 0
-261 -260 0
262 225 -243 0
-262 -225 0
-262 243 0
263 -225 243 0
-263 225 0
-263 -243 0
264 262 263 0
-264 -262 0
-264 -263 0
265 225 -264 0
-265 -225 0
-265 264 0
266 -225 264 0
-266 225 0
-266 -264 0
267 265 266 0
-267 -265 0
-267 -266 0
268 229 -243 0
-268 -229 0
-268 243 0
269 -229 243 0
-269 229 0
-269 -243 0
270 268 269 0
-270 -268 0
-270 -269 0
271 229 -270 0
-271 -229 0
-271 270 0
272 -229 270 0
-272 229 0
-272 -270 0
273 271 272 0
-273 -271 0
-273 -272 0
274 -232 -238 0
-274 232 0
-274 238 0
275 -249 274 0
-275 249 0
-275 -274 0
276 249 -274 0
-276 -249 0
-276 274 0
277 275 276 0
-277 -275 0
-277 -276 0
278 -249 -274 0
-278 249 0
-278 274 0
279 -255 278 0
-279 255 0
-279 -278 0
280 255 -278 0
-280 -255 0
-280 278 0
281 279 280 0
-281 -279 0
-281 -280 0
282 -255 -278 0
-282 255 0
-282 278 0
283 -261 282 0
-283 261 0
-283 -282 0
284 261 -282 0
-284 -261 0
-284 282 0
285 283 284 0
-285 -283 0
-285 -284 0
286 -261 -282 0
-286 261 0
-286 282 0
287 -267 286 0
-287 267 0
-287 -286 0
288 267 -286 0
-288 -267 0
-288 286 0
289 287 288 0
-289 -287 0
-289 -288 0
290 -267 -286 0
-290 267 0
-290 286 0
291 -273 290 0
-291 273 0
-291 -290 0
292 273 -290 0
-292 -273 0
-292 290 0
293 291 292 0
-293 -291 0
-293 -292 0
294 -243 249 0
-294 243 0
-294 -249 0
295 243 277 0
-295 -243 0
-295 -277 0
296 294 295 0
-296 -294 0
-296 -295 0
297 -243 255 0
-297 243 0
-297 -255 0
298 243 281 0
-298 -243 0
-298 -281 0
299 297 298 0
-299 -297 0
-299 -298 0
300 -243 261 0
-300 243 0
-300 -261 0
301 243 285 0
-301 -243 0
-301 -285 0
302 300 301 0
-302 -300 0
-302 -301 0
303 -243 267 0
-303 243 0
-303 -267 0
304 243 289 0
-304 -243 0
-304 -289 0
305 303 304 0
-305 -303 0
-305 -304 0
306 -243 273 0
-306 243 0
-306 -273 0
307 243 293 0
-307 -243 0
-307 -293 0
308 306 307 0
-308 -306 0
-308 -307 0
309 -296 -299 0
-309 296 0
-309 299 0
310 -302 -309 0
-310 302 0
-310 309 0
311 -305 -310 0
-311 305 0
-311 310 0
312 -308 -311 0
-312 308 0
-312 311 0
324 0
312 0

